SimulationType                MonteCarlo
NumberOfCycles                50000
NumberOfInitializationCycles  10000
PrintEvery                    2000

ContinueAfterCrash            no
WriteBinaryRestartFileEvery   2000
UseChargesFromCIFFile         yes

Forcefield                    UFF
RemoveAtomNumberCodeFromLabel yes

Framework 0
FrameworkName IRMOF-1
UnitCells 1 1 1
ExternalTemperature 298
ExternalPressure 1000

Component 0 MoleculeName             methane
            MoleculeDefinition       TraPPE-UA
            TranslationProbability   0.5
            ReinsertionProbability   0.5
            RotationProbability      0
            SwapProbability          1.0
            CreateNumberOfMolecules  0
